
******************************************************************************
This program contains Ipopt, a library for large-scale nonlinear optimization.
 Ipopt is released as open source code under the Eclipse Public License (EPL).
         For more information visit http://projects.coin-or.org/Ipopt

This version of Ipopt was compiled from source code available at
    https://github.com/IDAES/Ipopt as part of the Institute for the Design of
    Advanced Energy Systems Process Systems Engineering Framework (IDAES PSE
    Framework) Copyright (c) 2018-2019. See https://github.com/IDAES/idaes-pse.

This version of Ipopt was compiled using HSL, a collection of Fortran codes
    for large-scale scientific computation.  All technical papers, sales and
    publicity material resulting from use of the HSL codes within IPOPT must
    contain the following acknowledgement:
        HSL, a collection of Fortran codes for large-scale scientific
        computation. See http://www.hsl.rl.ac.uk.
******************************************************************************

This is Ipopt version 3.13.2, running with linear solver ma27.

Number of nonzeros in equality constraint Jacobian...:     1084
Number of nonzeros in inequality constraint Jacobian.:        0
Number of nonzeros in Lagrangian Hessian.............:     1088

Total number of variables............................:      448
                     variables with only lower bounds:      128
                variables with lower and upper bounds:      256
                     variables with only upper bounds:        0
Total number of equality constraints.................:      446
Total number of inequality constraints...............:        0
        inequality constraints with only lower bounds:        0
   inequality constraints with lower and upper bounds:        0
        inequality constraints with only upper bounds:        0

iter    objective    inf_pr   inf_du lg(mu)  ||d||  lg(rg) alpha_du alpha_pr  ls
   0  0.0000000e+00 2.03e+00 1.51e-13  -1.0 0.00e+00    -  0.00e+00 0.00e+00   0
   1  1.4996403e+01 1.65e+00 7.80e+05  -1.0 5.99e+06    -  2.70e-02 4.70e-02h  1
   2  1.5236470e+01 1.65e+00 7.80e+05  -1.0 1.22e+07    -  3.19e-02 3.03e-04h  1
   3  1.5440188e+01 1.65e+00 7.80e+05  -1.0 1.73e+07    -  8.69e-03 2.92e-04h  1
   4  1.7450001e+01 1.64e+00 7.85e+05  -1.0 1.78e+07    -  8.67e-03 2.53e-03h  1
   5  1.7474304e+01 1.64e+00 7.85e+05  -1.0 1.70e+07    -  2.09e-04 2.48e-05h  1
   6  1.7500630e+01 1.64e+00 7.85e+05  -1.0 4.94e+07    -  1.31e-07 1.47e-05h  1
   7  2.1452179e+01 1.63e+00 8.44e+05  -1.0 2.47e+07    -  1.26e-05 3.44e-03h  1
   8  2.1499721e+01 1.63e+00 8.44e+05  -1.0 2.50e+07    -  2.31e-03 3.27e-05h  1
   9  2.1508970e+01 1.63e+00 8.48e+05  -1.0 5.80e+08    -  1.38e-08 1.69e-06f  1
iter    objective    inf_pr   inf_du lg(mu)  ||d||  lg(rg) alpha_du alpha_pr  ls
  10  2.3749987e+01 1.62e+00 1.06e+06  -1.0 3.79e+07    -  1.17e-07 1.25e-03h  1
  11  6.2045763e+01 1.52e+00 5.07e+06  -1.0 3.85e+07    -  1.22e-03 1.16e-02h  2
  12  8.1275214e+01 1.51e+00 5.60e+06  -1.0 3.42e+07    -  1.17e-02 3.30e-03h  3
  13  9.0227998e+01 1.50e+00 5.74e+06  -1.0 3.19e+07    -  1.78e-02 1.33e-03h  4
  14  9.4537124e+01 1.50e+00 5.80e+06  -1.0 3.10e+07    -  1.87e-02 5.98e-04h  5
  15  9.6664420e+01 1.50e+00 5.83e+06  -1.0 2.89e+07    -  2.08e-02 3.01e-04h  6
  16  9.7733430e+01 1.50e+00 5.86e+06  -1.0 2.51e+07    -  2.94e-02 1.68e-04h  7
  17  9.8276967e+01 1.50e+00 7.89e+06  -1.0 2.66e+07    -  3.10e-02 9.82e-05h  8
  18  9.8519993e+01 1.50e+00 3.03e+07  -1.0 3.11e+07    -  3.76e-02 4.93e-05h  9
  19  9.8665586e+01 1.50e+00 1.33e+08  -1.0 4.63e+07    -  4.36e-02 4.09e-05h  9
iter    objective    inf_pr   inf_du lg(mu)  ||d||  lg(rg) alpha_du alpha_pr  ls
  20  1.2928900e+02 1.50e+00 1.35e+09  -1.0 5.27e+07    -  5.16e-02 4.81e-03h  2
  21  1.9618828e+02 4.22e+01 1.98e+10  -1.0 2.73e+07    -  2.67e-02 8.33e-03w  1
  22  2.3923728e+02 4.19e+01 2.12e+10  -1.0 5.05e+07    -  1.65e-01 6.98e-03w  1
  23  2.6172423e+02 4.17e+01 2.14e+10  -1.0 3.65e+07    -  9.60e-02 5.61e-03w  1
  24  1.3021268e+02 1.49e+00 1.35e+09  -1.0 3.26e+07    -  2.67e-02 1.30e-04h  6
  25  1.3746615e+02 1.49e+00 2.88e+09  -1.0 4.54e+07    -  7.87e-02 1.03e-03h  4
  26  1.3846053e+02 1.49e+00 4.54e+09  -1.0 3.12e+07    -  5.94e-02 1.53e-04h  7
  27  1.4577168e+02 1.49e+00 1.19e+10  -1.0 4.42e+07    -  1.83e-01 9.85e-04h  4
  28r 1.4577168e+02 1.49e+00 1.00e+03   0.2 0.00e+00    -  0.00e+00 4.59e-07R 15
  29r 1.4577176e+02 1.77e+00 9.94e+02   0.2 8.25e+02    -  5.72e-03 8.29e-03f  1
iter    objective    inf_pr   inf_du lg(mu)  ||d||  lg(rg) alpha_du alpha_pr  ls
  30r 1.4577184e+02 1.73e+00 9.79e+02   0.2 6.97e+02    -  2.14e-02 1.21e-02f  1
  31r 1.4577193e+02 1.69e+00 9.61e+02   0.2 5.42e+02    -  2.50e-02 1.76e-02f  1
  32r 1.4577196e+02 1.65e+00 9.42e+02   0.2 4.11e+02    -  7.57e-02 2.01e-02f  1
  33r 1.4577198e+02 1.60e+00 9.12e+02   0.2 3.32e+02    -  1.30e-02 3.19e-02f  1
  34r 1.4577198e+02 1.59e+00 9.72e+02   0.2 1.59e+02    -  4.21e-02 6.05e-03f  1
  35r 1.4577199e+02 1.55e+00 9.48e+02   0.2 1.27e+02    -  4.78e-02 2.52e-02f  1
  36r 1.4577198e+02 1.50e+00 9.17e+02   0.2 8.58e+01    -  2.75e-02 3.28e-02f  1
  37r 1.4577199e+02 1.47e+00 9.01e+02   0.2 1.52e+02    -  1.00e-02 1.80e-02f  1
  38r 1.4577199e+02 1.45e+00 8.88e+02   0.2 7.60e+01    -  2.81e-02 1.39e-02f  1
  39r 1.4577198e+02 1.39e+00 8.51e+02   0.2 4.15e+01    -  3.68e-02 4.14e-02f  1
iter    objective    inf_pr   inf_du lg(mu)  ||d||  lg(rg) alpha_du alpha_pr  ls
  40r 1.4577198e+02 1.35e+00 8.61e+02   0.2 9.28e+01    -  1.37e-02 2.47e-02f  1
  41r 1.4577198e+02 1.35e+00 8.36e+02   0.2 1.01e+03    -  1.83e-03 1.29e-03f  1
  42r 1.4577198e+02 1.34e+00 9.18e+02   0.2 1.08e+02    -  2.89e-02 1.12e-02f  1
  43  1.4476343e+02 3.54e+00 8.25e+05  -1.0 2.83e+07    -  3.62e-07 6.72e-03f  1
  44  1.4397922e+02 3.69e+00 2.24e+06  -1.0 1.72e+07  -4.0 3.66e-03 2.00e-03f  2
  45  1.4366831e+02 4.50e+00 4.34e+06  -1.0 1.52e+07  -3.6 1.63e-02 1.42e-03f  2
  46  1.4369753e+02 4.50e+00 4.36e+06  -1.0 1.38e+07  -4.1 3.21e-02 2.41e-04h  5
  47  1.3770390e+02 4.46e+00 1.52e+07  -1.0 3.00e+07    -  2.74e-03 8.83e-03f  2
  48  1.4006631e+02 4.40e+00 1.66e+07  -1.0 1.17e+07    -  3.18e-02 1.30e-02h  2
  49  1.4080178e+02 4.33e+00 1.66e+07  -1.0 6.04e+06    -  6.33e-02 1.56e-02h  2
iter    objective    inf_pr   inf_du lg(mu)  ||d||  lg(rg) alpha_du alpha_pr  ls
  50  1.3722038e+02 4.29e+00 1.65e+07  -1.0 3.07e+06    -  8.88e-02 9.66e-03f  3
  51  1.2075247e+02 4.16e+00 3.33e+07  -1.0 3.62e+06    -  7.02e-02 3.05e-02f  2
  52  1.2132050e+02 4.15e+00 3.28e+07  -1.0 4.51e+06    -  1.72e-02 2.55e-03h  5
  53  1.2027792e+02 4.14e+00 3.28e+07  -1.0 4.56e+06    -  1.35e-02 1.10e-03f  7
  54  6.8514520e+01 6.86e+01 1.88e+09  -1.0 4.62e+06    -  1.36e-02 7.15e-02w  1
  55  6.2081596e+01 6.85e+01 1.88e+09  -1.0 2.10e+08  -3.6 1.35e-03 8.10e-04w  1
  56  6.1982607e+01 6.85e+01 1.88e+09  -1.0 3.17e+07    -  1.42e-02 4.84e-05w  1
  57  1.1973286e+02 4.14e+00 3.28e+07  -1.0 2.26e+07    -  1.36e-02 5.58e-04f  7
  58  1.1510636e+02 4.12e+00 6.09e+07  -1.0 3.86e+06    -  1.42e-02 5.87e-03f  5
  59  1.0936016e+02 4.09e+00 9.25e+07  -1.0 4.43e+06    -  1.59e-02 6.30e-03f  5
iter    objective    inf_pr   inf_du lg(mu)  ||d||  lg(rg) alpha_du alpha_pr  ls
  60  1.0860342e+02 4.09e+00 9.28e+07  -1.0 5.83e+06    -  4.77e-02 7.12e-04f  8
  61  4.5222850e+01 6.89e+01 2.48e+09  -1.0 6.13e+06    -  2.63e-02 8.86e-02f  1
  62  4.5057473e+01 6.89e+01 2.48e+09  -1.0 3.43e+07    -  4.73e-02 1.64e-04h  1
  63r 4.5057473e+01 6.89e+01 9.99e+02   1.8 0.00e+00    -  0.00e+00 2.78e-07R  4
  64r 4.5057359e+01 3.00e+01 9.93e+02   1.8 7.62e+03    -  9.08e-03 5.11e-03f  1
  65r 4.5057359e+01 3.00e+01 9.99e+02   1.5 0.00e+00    -  0.00e+00 2.87e-07R  6
  66r 4.5057297e+01 3.64e+00 9.96e+02   1.5 9.45e+03    -  3.81e-03 3.14e-03f  1
  67  4.5081955e+01 3.64e+00 2.22e+02  -1.0 3.37e+07    -  3.67e-02 1.86e-05h  1
  68  4.5316960e+01 3.64e+00 8.63e+03  -1.0 4.01e+07    -  7.24e-03 1.00e-03h  5
  69  4.1921478e+01 9.07e+00 1.01e+05  -1.0 2.03e+07    -  5.43e-03 8.25e-03f  3
iter    objective    inf_pr   inf_du lg(mu)  ||d||  lg(rg) alpha_du alpha_pr  ls
  70  4.2736103e+01 9.04e+00 1.29e+05  -1.0 3.11e+07    -  8.84e-03 3.26e-03h  4
  71  4.3899082e+01 9.04e+00 1.33e+05  -1.0 8.99e+07    -  4.24e-03 2.09e-04h  6
  72  5.2410862e+01 9.04e+00 2.79e+05  -1.0 2.44e+08    -  2.97e-04 2.97e-04s 14
  73r 5.2410862e+01 9.04e+00 9.99e+02   1.0 0.00e+00    -  0.00e+00 0.00e+00R  1
  74r 5.2410814e+01 3.58e+00 9.96e+02   1.0 5.33e+03    -  4.44e-03 2.01e-03f  1
  75  5.2819560e+01 3.57e+00 3.00e+01  -1.0 3.07e+07    -  1.20e-02 1.76e-03h  5
  76  5.2982857e+01 3.57e+00 8.79e+01  -1.0 2.83e+07    -  5.38e-02 9.49e-04h  6
  77  5.2988602e+01 3.57e+00 8.79e+01  -1.0 7.59e+06    -  7.97e-02 1.84e-04h 10
  78  4.2490695e+01 2.72e+01 5.11e+03  -1.0 7.54e+06    -  6.64e-02 4.36e-02f  4
  79  4.2661057e+01 2.71e+01 5.10e+03  -1.0 8.37e+06    -  1.96e-01 6.14e-04h  8
iter    objective    inf_pr   inf_du lg(mu)  ||d||  lg(rg) alpha_du alpha_pr  ls
  80  4.1956753e+01 2.71e+01 5.10e+03  -1.0 8.06e+06    -  1.81e-02 7.69e-04H  1
  81  4.2118967e+01 2.71e+01 5.10e+03  -1.0 8.39e+06    -  5.73e-02 6.24e-04h  8
  82  4.2456722e+01 2.71e+01 5.09e+03  -1.0 8.30e+06    -  5.76e-04 1.25e-03h  7
  83  4.2784399e+01 2.70e+01 5.08e+03  -1.0 5.55e+06    -  1.89e-05 1.88e-03f  7
  84  4.1372107e+01 2.69e+01 5.06e+03  -1.0 4.43e+06    -  3.66e-02 3.94e-03H  1
  85  4.2801060e+01 2.68e+01 5.03e+03  -1.0 7.51e+06    -  7.97e-05 5.79e-03h  5
  86  3.9787853e+01 2.65e+01 4.97e+03  -1.0 4.11e+06    -  3.82e-02 9.45e-03H  1
  87  3.9758239e+01 2.65e+01 4.97e+03  -1.0 7.38e+06    -  1.99e-02 3.57e-05H  1
  88  4.1107494e+01 2.64e+01 4.94e+03  -1.0 8.04e+06    -  4.84e-02 5.96e-03h  5
  89  4.1861033e+01 2.63e+01 4.92e+03  -1.0 7.16e+06    -  5.36e-04 3.16e-03h  6
iter    objective    inf_pr   inf_du lg(mu)  ||d||  lg(rg) alpha_du alpha_pr  ls
  90  4.1855610e+01 2.63e+01 4.92e+03  -1.0 3.60e+06    -  4.52e-02 1.13e-05H  1
  91  4.2050403e+01 2.62e+01 4.92e+03  -1.0 6.78e+06    -  2.74e-02 8.13e-04h  8
  92  4.2451344e+01 2.62e+01 4.91e+03  -1.0 6.63e+06    -  2.87e-04 1.65e-03f  7
  93  4.2757798e+01 2.61e+01 4.89e+03  -1.0 3.10e+06    -  4.14e-01 3.60e-03f  7
  94  3.9263546e+01 2.60e+01 4.89e+03  -1.0 5.25e+06    -  1.92e-02 4.84e-03H  1
  95  4.1827193e+01 2.56e+01 4.82e+03  -1.0 7.87e+06    -  3.72e-02 1.30e-02h  4
  96  4.1668547e+01 2.56e+01 4.82e+03  -1.0 5.69e+06    -  2.47e-02 1.81e-04H  1
  97  4.2048279e+01 2.56e+01 4.81e+03  -1.0 6.14e+06    -  5.72e-02 1.87e-03h  7
  98  4.2243725e+01 2.56e+01 4.80e+03  -1.0 5.91e+06    -  6.21e-04 9.58e-04f  8
  99  4.2890522e+01 2.54e+01 4.75e+03  -1.0 3.03e+06    -  3.17e-05 7.64e-03h  6
iter    objective    inf_pr   inf_du lg(mu)  ||d||  lg(rg) alpha_du alpha_pr  ls
 100  4.1760081e+01 2.53e+01 4.74e+03  -1.0 2.42e+06    -  4.25e-02 3.77e-03H  1
 101  4.1773727e+01 2.53e+01 4.74e+03  -1.0 2.95e+06    -  3.91e-01 9.57e-05H  1
 102  4.1951076e+01 2.52e+01 4.74e+03  -1.0 5.75e+06    -  1.13e-01 1.00e-03h  8
 103  4.2321133e+01 2.52e+01 4.73e+03  -1.0 5.63e+06    -  1.29e-03 2.04e-03h  7
 104  4.2670523e+01 2.51e+01 4.71e+03  -1.0 3.49e+06    -  2.85e-05 3.30e-03f  7
 105  4.2909014e+01 2.49e+01 4.67e+03  -1.0 1.82e+06    -  4.92e-01 6.50e-03h  7
 106  4.2409532e+01 2.48e+01 4.67e+03  -1.0 2.33e+06    -  3.57e-02 5.08e-03H  1
 107  4.1888151e+01 2.48e+01 4.66e+03  -1.0 5.41e+06    -  2.14e-02 2.86e-03H  1
 108  4.2025763e+01 2.47e+01 4.65e+03  -1.0 6.27e+06    -  5.77e-02 2.05e-03h  7
 109  4.2393132e+01 2.46e+01 4.63e+03  -1.0 6.01e+06    -  6.29e-04 4.23e-03h  6
iter    objective    inf_pr   inf_du lg(mu)  ||d||  lg(rg) alpha_du alpha_pr  ls
 110  4.2765792e+01 2.44e+01 4.57e+03  -1.0 2.24e+06    -  6.17e-05 8.95e-03f  7
 111  4.2938875e+01 2.42e+01 4.51e+03  -1.0 2.14e+06    -  5.69e-01 8.54e-03h  7
 112  4.3040092e+01 2.40e+01 1.05e+06  -1.0 2.07e+06    -  2.02e-02 6.10e-03h  7
 113  3.3615529e+02 1.75e+01 3.07e+06  -1.0 7.24e+06    -  1.50e-01 2.71e-01h  1
 114  4.6314270e+02 1.39e+01 3.93e+08  -1.0 3.04e+06  -4.1 5.70e-01 2.09e-01h  1
 115  4.5866758e+02 8.86e+00 2.33e+08  -1.0 2.57e+06  -4.6 1.21e-01 3.61e-01f  1
 116  3.9071590e+02 1.76e+01 1.08e+09  -1.0 1.74e+06  -5.1 9.90e-01 9.90e-01f  1
 117  3.8415187e+02 9.11e+00 1.25e+09  -1.0 2.61e+06  -4.6 3.13e-01 4.82e-01f  1
 118  2.2223425e+02 7.00e+00 9.56e+08  -1.0 7.32e+06    -  6.71e-01 2.32e-01f  1
 119  2.2275677e+02 6.97e+00 9.52e+08  -1.0 6.86e+06  -5.1 1.94e-01 4.38e-03h  5
iter    objective    inf_pr   inf_du lg(mu)  ||d||  lg(rg) alpha_du alpha_pr  ls
 120  2.2294161e+02 6.97e+00 9.52e+08  -1.0 6.52e+07  -5.6 2.82e-02 1.08e-04h  7
 121  2.2299475e+02 6.95e+00 9.49e+08  -1.0 2.49e+06  -4.3 1.00e+00 2.78e-03h  7
 122  2.2806505e+02 6.52e+00 8.90e+08  -1.0 3.52e+06  -4.7 3.30e-01 6.20e-02h  2
 123  2.3615127e+02 6.29e+00 8.60e+08  -1.0 3.22e+06    -  5.99e-01 3.42e-02h  2
 124  2.3844514e+02 6.03e+00 8.24e+08  -1.0 6.72e+05    -  1.00e+00 4.14e-02h  3
 125  2.4160624e+02 5.88e+00 8.03e+08  -1.0 1.13e+06    -  6.26e-01 2.58e-02h  3
 126  2.4289480e+02 5.78e+00 7.89e+08  -1.0 5.20e+05    -  9.08e-01 1.67e-02h  4
 127  2.2545137e+02 3.61e+00 1.41e+09  -1.0 7.60e+04  -2.5 8.96e-02 9.90e-01H  1
 128  1.9899539e+02 2.19e+00 3.32e+08  -1.0 1.76e+05  -3.0 2.09e-01 9.90e-01f  1
 129  1.8812818e+02 5.36e+00 1.37e+10  -1.0 2.12e+07  -3.5 1.13e-03 6.27e-03F  1
iter    objective    inf_pr   inf_du lg(mu)  ||d||  lg(rg) alpha_du alpha_pr  ls
 130  1.5956036e+02 4.91e+00 2.62e+10  -1.0 4.75e+05  -2.1 1.13e-01 8.90e-01f  1
 131r 1.5956036e+02 4.91e+00 1.00e+03   0.7 0.00e+00  -2.6 0.00e+00 3.74e-07R  9
 132r 1.5956075e+02 4.81e+00 9.81e+02   0.7 1.64e+03    -  9.88e-02 1.81e-02f  1
 133r 1.5956122e+02 4.78e+00 9.57e+02   0.7 2.02e+03    -  4.55e-02 2.45e-02f  1
 134r 1.5956120e+02 4.78e+00 9.52e+02   0.7 2.86e+03    -  1.15e-03 7.80e-03f  1
 135r 1.5956114e+02 4.77e+00 9.35e+02   0.7 2.25e+02    -  1.78e-01 1.48e-02f  1
 136r 1.5956029e+02 4.61e+00 9.87e+02   0.7 1.90e+02    -  6.78e-01 9.53e-02f  1
 137r 1.5955838e+02 2.77e+00 7.58e+02   0.7 1.98e+02    -  1.32e-02 2.70e-01f  1
 138  1.5675642e+02 6.92e+00 2.72e+07  -1.0 5.08e+05    -  6.71e-02 3.50e-01H  1
 139  1.5689992e+02 6.89e+00 2.71e+07  -1.0 1.85e+06    -  1.54e-01 3.97e-03h  5
iter    objective    inf_pr   inf_du lg(mu)  ||d||  lg(rg) alpha_du alpha_pr  ls
 140  1.5697520e+02 6.88e+00 2.71e+07  -1.0 2.13e+06    -  1.39e-01 8.80e-04h  5
 141  1.5701113e+02 6.88e+00 2.71e+07  -1.0 2.06e+06    -  1.43e-01 5.24e-04h  6
 142  1.5703184e+02 6.87e+00 2.71e+07  -1.0 1.91e+06    -  1.60e-01 6.25e-04h  7
 143  1.5703349e+02 6.87e+00 2.71e+07  -1.0 1.81e+06    -  1.79e-01 4.56e-04h 10
 144  1.6170628e+02 5.86e+00 1.89e+07  -1.0 1.74e+06    -  2.03e-01 1.47e-01H  1
 145  2.0699485e+02 5.04e+00 1.29e+11  -1.0 5.30e+06  -3.1 1.24e-04 1.41e-01H  1
 146  1.9056795e+02 4.76e+00 2.27e+11  -1.0 1.80e+06  -1.8 1.07e-02 5.46e-02F  1
 147  1.9290947e+02 4.75e+00 2.27e+11  -1.0 1.35e+06  -2.2 1.61e-02 3.04e-03H  1
 148  1.8038783e+02 7.53e-01 1.32e+11  -1.0 7.47e+05  -1.8 3.28e-04 9.90e-01h  1
 149  1.7399903e+02 7.38e-01 2.84e+11  -1.0 1.95e+07  -2.3 1.70e-02 3.04e-02f  2
iter    objective    inf_pr   inf_du lg(mu)  ||d||  lg(rg) alpha_du alpha_pr  ls
 150  1.4439946e+02 3.22e+00 3.67e+11  -1.0 3.67e+06  -2.8 3.19e-01 3.99e-01H  1
 151  1.4501576e+02 3.18e+00 3.59e+11  -1.0 8.44e+06  -1.4 9.69e-02 2.32e-02h  4
 152  1.5345547e+02 2.77e+00 2.97e+11  -1.0 1.26e+06  -1.0 6.59e-01 1.65e-01h  3
 153  1.5906115e+02 2.71e+00 2.90e+11  -1.0 5.82e+06  -1.5 1.07e-01 2.64e-02h  3
 154  1.5989373e+02 2.69e+00 2.88e+11  -1.0 5.06e+06  -1.1 1.99e-01 6.55e-03h  5
 155  1.6624891e+02 2.35e+00 2.41e+11  -1.0 7.86e+05  -0.6 3.75e-01 1.52e-01h  3
 156  1.6822583e+02 2.30e+00 2.36e+11  -1.0 1.01e+06    -  5.24e-01 2.22e-02h  5
 157  1.6923326e+02 2.28e+00 2.33e+11  -1.0 1.14e+06    -  4.57e-01 9.67e-03h  6
 158  1.6974093e+02 2.27e+00 2.32e+11  -1.0 1.45e+06    -  4.93e-01 4.23e-03h  7
 159  1.6999525e+02 2.26e+00 2.32e+11  -1.0 1.74e+06    -  4.82e-01 1.89e-03h  8
iter    objective    inf_pr   inf_du lg(mu)  ||d||  lg(rg) alpha_du alpha_pr  ls
 160  1.7435067e+02 2.20e+00 2.25e+11  -1.0 1.97e+06    -  4.58e-01 2.79e-02h  4
 161  2.0867556e+02 1.31e+01 2.32e+11  -1.0 5.30e+05  -1.1 7.85e-01 5.26e-01w  1
 162  2.5752322e+02 4.92e+00 2.15e+11  -1.0 8.73e+05    -  2.30e-01 6.23e-01w  1
 163  1.8159594e+02 5.29e+00 9.29e+12  -1.0 7.52e+06  -1.6 1.08e-02 8.35e-02w  1
 164  1.8183554e+02 1.92e+00 1.96e+11  -1.0 5.25e+05  -2.1 7.85e-01 1.32e-01h  2
 165  2.0490607e+02 1.08e+00 1.38e+11  -1.0 3.27e+05    -  9.90e-01 4.24e-01h  2
 166  2.0507405e+02 1.07e+00 1.38e+11  -1.0 4.86e+06  -1.6 1.11e-01 1.46e-03h  7
 167  2.0519008e+02 1.07e+00 1.38e+11  -1.0 1.22e+07  -2.1 1.10e-01 2.58e-04h  9
 168  2.0521843e+02 1.07e+00 1.38e+11  -1.0 5.54e+06  -1.7 1.39e-01 1.62e-04h 10
 169  2.0525888e+02 1.07e+00 1.38e+11  -1.0 8.58e+06  -1.3 1.98e-01 1.00e-04h 10
iter    objective    inf_pr   inf_du lg(mu)  ||d||  lg(rg) alpha_du alpha_pr  ls
 170  2.0545605e+02 1.07e+00 1.37e+11  -1.0 5.35e+06  -1.7 1.26e-01 1.35e-03h  7
 171  2.0611125e+02 1.07e+00 1.37e+11  -1.0 2.23e+07  -2.2 6.91e-02 9.73e-04h  7
 172  2.0620887e+02 1.07e+00 1.37e+11  -1.0 5.07e+06  -1.8 1.26e-01 7.51e-04h  8
 173  2.0650739e+02 1.07e+00 1.37e+11  -1.0 3.11e+07  -2.3 6.21e-02 3.09e-04h  8
 174  2.5281907e+02 2.75e+01 1.07e+11  -1.0 5.13e+06  -1.8 1.23e-01 1.36e-01w  1
 175  3.0564009e+02 2.41e+00 8.51e+10  -1.0 5.26e+05    -  1.94e-01 9.90e-01h  1
 176  2.9676490e+02 1.25e+00 6.76e+09  -1.0 4.72e+04  -1.4 2.94e-01 9.90e-01h  1
 177  2.8887513e+02 5.00e-01 7.73e+08  -1.0 4.54e+04  -1.9 8.34e-01 9.90e-01h  1
 178  2.8404027e+02 1.27e-01 4.48e+09  -1.0 6.19e+04  -2.4 9.08e-01 9.90e-01h  1
 179  2.8302843e+02 1.11e-02 5.55e+10  -1.0 2.49e+04  -2.8 1.00e+00 9.90e-01h  1
In iteration 179, 32 Slacks too small, adjusting variable bounds
iter    objective    inf_pr   inf_du lg(mu)  ||d||  lg(rg) alpha_du alpha_pr  ls
 180  2.8297844e+02 1.79e-04 5.55e+12  -1.0 1.10e+03  -3.3 1.00e+00 9.90e-01h  1
 181  2.8297810e+02 1.53e-08 1.26e+02  -1.0 1.63e+01  -3.8 1.00e+00 1.00e+00h  1
 182  2.8297773e+02 3.85e-12 1.83e+07  -8.6 1.67e+00  -4.3 1.00e+00 1.00e+00f  1
 183  1.3415721e+02 5.73e-01 1.20e+07  -8.6 1.65e+06    -  3.44e-01 1.00e+00f  1
 184  2.3550160e+02 2.87e-01 9.08e+06  -8.6 2.94e+06    -  2.46e-01 5.57e-01h  1
 185  2.7655839e+02 4.75e-02 9.08e+06  -8.6 2.80e+05    -  8.61e-09 1.00e+00h  1
 186  1.6855815e+02 6.43e-02 5.47e+04  -8.6 1.27e+06    -  9.94e-01 1.00e+00f  1
 187  1.5405168e+02 5.34e-03 6.59e+02  -8.6 4.09e+05    -  1.00e+00 1.00e+00f  1
 188  1.4068372e+02 1.08e+00 4.85e+09  -8.6 9.90e+05  -4.8 1.00e+00 1.00e+00f  1
 189  1.3623357e+02 6.36e-01 8.29e+08  -8.6 2.13e+05  -5.2 1.00e+00 1.00e+00f  1
iter    objective    inf_pr   inf_du lg(mu)  ||d||  lg(rg) alpha_du alpha_pr  ls
 190  1.3592003e+02 2.09e-01 5.77e+08  -8.6 2.61e+05    -  8.12e-01 1.00e+00f  1
 191  1.3643026e+02 1.82e-02 6.59e+07  -8.6 1.19e+05  -4.8 1.00e+00 1.00e+00h  1
 192  1.3607801e+02 1.43e-04 2.12e+06  -8.6 2.28e+04  -5.3 1.00e+00 1.00e+00f  1
 193  1.3606304e+02 6.10e-08 3.96e+02  -8.6 3.42e+02  -5.8 1.00e+00 1.00e+00h  1
 194  1.3553977e+02 4.47e-04 4.16e+02  -8.6 2.48e+04    -  1.00e+00 1.00e+00f  1
 195  1.3556710e+02 9.48e-08 3.91e+00  -8.6 5.29e+02  -6.2 1.00e+00 1.00e+00h  1
 196  1.3402684e+02 2.20e-03 4.97e+02  -8.6 8.09e+04    -  1.00e+00 1.00e+00f  1
 197  1.3383206e+02 1.02e-05 8.32e+01  -8.6 3.69e+03  -6.7 1.00e+00 1.00e+00f  1
 198  1.3382586e+02 2.51e-08 6.02e+00  -8.6 2.66e+02  -7.2 1.00e+00 1.00e+00h  1
 199  1.3170695e+02 1.26e-01 1.04e+02  -8.6 2.66e+06    -  6.27e-01 1.57e-01f  2
iter    objective    inf_pr   inf_du lg(mu)  ||d||  lg(rg) alpha_du alpha_pr  ls
 200  1.2442441e+02 1.18e-02 1.87e+03  -8.6 6.55e+04  -7.7 1.00e+00 1.00e+00f  1
 201  1.2354634e+02 1.31e-04 1.17e+02  -8.6 2.90e+03  -8.1 1.00e+00 1.00e+00f  1
 202  1.2305023e+02 5.77e-04 9.08e+00  -8.6 9.37e+03  -8.6 1.00e+00 1.00e+00f  1
 203  1.2256765e+02 4.37e-01 2.55e+01  -8.6 8.21e+03  -8.2 1.00e+00 1.00e+00f  1
 204  1.2168977e+02 5.17e-04 7.63e+00  -8.6 1.33e+04  -8.7 1.00e+00 1.00e+00f  1
 205  1.1869859e+02 2.92e-03 2.07e+00  -8.6 4.51e+04  -9.1 1.00e+00 1.00e+00f  1
 206  1.0118666e+02 4.56e+00 8.56e+01  -8.6 2.63e+05  -9.6 1.00e+00 1.00e+00f  1
 207  3.4933358e+01 6.81e+01 1.44e+11  -8.6 8.59e+05 -10.1 5.30e-01 6.55e-01f  1
 208  3.4933358e+01 6.81e+01 6.71e+08  -8.6 1.98e-01  12.7 1.00e+00 1.97e-04h  1
 209  3.4933347e+01 3.42e+02 6.37e+14  -8.6 1.47e+10    -  3.93e-10 1.40e-08h  1
iter    objective    inf_pr   inf_du lg(mu)  ||d||  lg(rg) alpha_du alpha_pr  ls
 210  2.6024581e+01 1.65e+02 3.75e+24  -8.6 2.47e+05  12.2 1.65e-08 1.00e+00f  1
 211  3.3504735e+01 1.11e+02 1.21e+24  -8.6 4.99e+05  11.7 8.06e-01 4.63e-01h  2
 212  3.3590259e+01 9.73e+01 1.17e+24  -8.6 2.17e+05    -  5.11e-01 3.60e-02H  1
 213  3.3590259e+01 6.81e+01 1.03e+28  -8.6 9.15e+09    -  6.02e-09 6.43e-18H  1
Scaling factors are invalid - setting them all to 1.
Scaling factors are invalid - setting them all to 1.
MA27BD returned iflag=-4 and requires more memory.
 Increase liw from 16835 to 33670 and la from 19800 to 39948 and factorize again.
Scaling factors are invalid - setting them all to 1.
Scaling factors are invalid - setting them all to 1.
Scaling factors are invalid - setting them all to 1.
Scaling factors are invalid - setting them all to 1.
Scaling factors are invalid - setting them all to 1.
Scaling factors are invalid - setting them all to 1.
Scaling factors are invalid - setting them all to 1.
Scaling factors are invalid - setting them all to 1.
Scaling factors are invalid - setting them all to 1.
Scaling factors are invalid - setting them all to 1.
WARNING: Problem in step computation; switching to emergency mode.
 214r 3.3590259e+01 6.81e+01 1.00e+03   1.8 0.00e+00  19.1 0.00e+00 0.00e+00R  1
 215r 3.3590282e+01 9.41e+02 1.16e+07   1.8 4.51e+04    -  1.31e-03 3.05e-05f  1
 216r 3.3590251e+01 7.05e+01 1.08e+07   1.8 3.56e+04    -  6.97e-02 1.85e-03f  1
 217r 3.3590237e+01 7.59e+01 5.91e+06   1.8 2.10e+02    -  4.57e-01 6.09e-02f  1
 218r 3.3590373e+01 7.93e+02 1.93e+04   1.8 2.07e+01    -  9.91e-01 5.05e-01f  1
 219r 3.3590474e+01 2.66e+01 1.41e+05   1.8 2.49e+01    -  7.32e-01 1.00e+00h  1
iter    objective    inf_pr   inf_du lg(mu)  ||d||  lg(rg) alpha_du alpha_pr  ls
 220  3.3585318e+01 9.64e+00 1.52e+11  -8.6 8.77e+11    -  8.51e-10 3.57e-08f  2
 221  3.3585318e+01 9.55e+00 1.44e+11  -8.6 4.54e+00  10.0 2.65e-01 1.94e-02h  1
 222  4.8915294e+01 8.09e+00 6.51e+21  -8.6 1.10e+06   9.5 1.28e-07 2.46e-01h  2
 223  4.8916885e+01 8.09e+00 6.51e+21  -8.6 1.06e+06   9.0 7.57e-01 8.30e-05h  2
 224  4.8858726e+01 1.15e+01 2.65e+24  -8.6 9.43e+06   8.6 3.01e-01 6.31e-04H  1
Scaling factors are invalid - setting them all to 1.
Scaling factors are invalid - setting them all to 1.
Scaling factors are invalid - setting them all to 1.
Scaling factors are invalid - setting them all to 1.
 225  4.8858964e+01 7.19e+00 9.98e+21  -8.6 3.13e+05   9.9 7.87e-06 7.87e-06S 14
 226  4.8858941e+01 7.19e+00 9.98e+21  -8.6 1.18e+11   9.4 1.21e-15 9.46e-11f  6
 227  4.8857982e+01 1.17e+01 1.07e+38  -8.6 8.86e+10   8.9 1.64e-09 9.72e-10f  3
Scaling factors are invalid - setting them all to 1.
Scaling factors are invalid - setting them all to 1.
Scaling factors are invalid - setting them all to 1.
Scaling factors are invalid - setting them all to 1.
Scaling factors are invalid - setting them all to 1.
Scaling factors are invalid - setting them all to 1.
Scaling factors are invalid - setting them all to 1.
Scaling factors are invalid - setting them all to 1.
Scaling factors are invalid - setting them all to 1.
Scaling factors are invalid - setting them all to 1.
Scaling factors are invalid - setting them all to 1.
Scaling factors are invalid - setting them all to 1.
WARNING: Problem in step computation; switching to emergency mode.
 228r 4.8857982e+01 1.17e+01 9.99e+02   1.1 0.00e+00  18.8 0.00e+00 0.00e+00R  1
 229r 4.8857923e+01 1.27e+01 9.95e+02   1.1 1.17e+04    -  4.90e-03 9.90e-04f  1
iter    objective    inf_pr   inf_du lg(mu)  ||d||  lg(rg) alpha_du alpha_pr  ls
 230r 4.8857903e+01 9.07e-01 9.93e+02   1.1 1.08e+03    -  1.77e-02 4.43e-03f  1
 231  4.8857902e+01 7.77e+00 9.11e+07  -8.6 9.00e+09    -  9.99e-10 1.27e-08h  2
 232r 4.8857902e+01 7.77e+00 9.99e+02   0.9 0.00e+00  -4.0 0.00e+00 3.26e-07R 19
 233r 4.8857901e+01 1.15e+01 3.76e+10   0.9 8.53e+03    -  7.23e-03 1.62e-04f  1
 234r 4.8857901e+01 1.17e+01 1.91e+18   0.9 4.30e-01   9.5 2.82e-02 9.22e-03h  1
WARNING: Problem in step computation; switching to emergency mode.
 235r 4.8857901e+01 1.17e+01 1.91e+18   0.9 4.30e-01  19.4 0.00e+00 0.00e+00R  1
 236r 4.8857901e+01 1.17e+01 5.64e+09   0.9 2.83e-17  19.8 9.90e-01 1.00e+00   0
 237r 4.8857901e+01 1.17e+01 2.14e+03   0.9 9.48e-17  19.4 9.98e-01 1.00e+00   0
 238r 4.8857901e+01 1.17e+01 5.16e+04   0.9 6.84e-15  18.9 1.00e+00 1.00e+00h  1
 239r 4.8857901e+01 1.17e+01 8.63e+04   0.9 3.43e-14  18.4 1.00e+00 1.00e+00h  1
iter    objective    inf_pr   inf_du lg(mu)  ||d||  lg(rg) alpha_du alpha_pr  ls
 240r 4.8857901e+01 1.17e+01 1.48e+05   0.9 1.76e-13  17.9 1.00e+00 1.00e+00h  1
 241r 4.8857901e+01 1.17e+01 3.52e+05   0.9 1.26e-12  17.4 1.00e+00 1.00e+00h  1
 242r 4.8857901e+01 1.17e+01 3.40e+05   0.9 1.54e-11  17.0 1.00e+00 3.12e-02h  6
 243r 4.8857901e+01 1.17e+01 1.86e+05   0.9 6.00e-12  16.5 1.00e+00 1.00e+00h  1
 244r 4.8857901e+01 1.17e+01 9.14e+05   0.9 2.50e-10  16.0 1.00e+00 1.00e+00H  1
 245r 4.8857901e+01 1.17e+01 5.21e+05   0.9 6.46e-10  15.5 1.00e+00 1.25e-01h  4
 246r 4.8857901e+01 1.17e+01 1.50e+05   0.9 5.85e-10  15.1 1.00e+00 1.00e+00H  1
 247r 4.8857901e+01 1.17e+01 2.22e+05   0.9 5.79e-10  14.6 1.00e+00 1.00e+00h  1
 248r 4.8857901e+01 1.17e+01 3.92e+04   0.9 3.07e-10  14.1 1.00e+00 1.00e+00h  1
 249r 4.8857901e+01 1.17e+01 8.65e+03   0.9 2.03e-10  13.6 1.00e+00 1.00e+00h  1
iter    objective    inf_pr   inf_du lg(mu)  ||d||  lg(rg) alpha_du alpha_pr  ls
 250r 4.8857901e+01 1.17e+01 1.52e+04   0.9 1.07e-09  13.2 1.00e+00 1.00e+00h  1
 251r 4.8857901e+01 1.17e+01 2.86e+03   0.9 4.94e-10  12.7 1.00e+00 1.00e+00h  1
 252r 4.8857901e+01 1.17e+01 8.29e+03   0.9 1.22e-09  12.2 1.00e+00 1.00e+00h  1
 253r 4.8857901e+01 1.17e+01 2.19e+04   0.9 3.65e-09  11.7 1.00e+00 1.00e+00f  1
 254r 4.8857901e+01 1.17e+01 4.37e+04   0.9 1.10e-08  11.2 1.00e+00 1.00e+00f  1
 255r 4.8857901e+01 1.17e+01 3.17e+04   0.9 3.29e-08  10.8 1.00e+00 1.00e+00f  1
 256r 4.8857901e+01 1.17e+01 4.06e+05   0.9 9.87e-08  10.3 1.00e+00 1.00e+00f  1
 257r 4.8857901e+01 1.17e+01 1.22e+07   0.9 2.96e-07   9.8 1.00e+00 1.00e+00f  1
 258r 4.8857901e+01 1.17e+01 1.44e+09   0.9 8.87e-07   9.3 1.00e+00 1.00e+00f  1
 259r 4.8857901e+01 1.24e+01 3.97e+04   0.9 2.66e-06   8.9 1.00e+00 1.00e+00f  1
iter    objective    inf_pr   inf_du lg(mu)  ||d||  lg(rg) alpha_du alpha_pr  ls
 260r 4.8857901e+01 1.35e+01 2.21e+12   0.9 4.59e+00   8.4 8.41e-04 4.09e-03f  2
 261r 4.8857901e+01 1.24e+01 8.99e+17   0.9 3.10e-01   8.3 1.63e-01 8.13e-03h  5
WARNING: Problem in step computation; switching to emergency mode.
 262r 4.8857901e+01 1.24e+01 8.99e+17   0.9 3.10e-01  19.3 0.00e+00 0.00e+00R  1
 263r 4.8857901e+01 1.24e+01 7.28e+09   0.9 1.89e-17  19.7 1.00e+00 1.00e+00   0
 264r 4.8857901e+01 1.24e+01 1.17e+03   0.9 6.44e-17  19.3 1.00e+00 1.00e+00   0
 265r 4.8857901e+01 1.24e+01 1.67e+03   0.9 2.77e-16  18.8 1.00e+00 1.00e+00   0
Restoration phase is called at point that is almost feasible,
  with constraint violation 2.151695e-13. Abort.
Restoration phase in the restoration phase failed.

Number of Iterations....: 265

                                   (scaled)                 (unscaled)
Objective...............:   4.8857901200124005e+01    4.8857901200124005e+01
Dual infeasibility......:   1.0154402343937215e+03    1.0154402343937215e+03
Constraint violation....:   1.2405524661769686e+01    1.2405524661769686e+01
Complementarity.........:   7.7708274955228900e+00    7.7708274955228900e+00
Overall NLP error.......:   5.2519171319519683e+02    1.0154402343937215e+03


Number of objective function evaluations             = 1054
Number of objective gradient evaluations             = 209
Number of equality constraint evaluations            = 1054
Number of inequality constraint evaluations          = 0
Number of equality constraint Jacobian evaluations   = 274
Number of inequality constraint Jacobian evaluations = 0
Number of Lagrangian Hessian evaluations             = 266
Total CPU secs in IPOPT (w/o function evaluations)   =      0.693
Total CPU secs in NLP function evaluations           =     10.533

EXIT: Restoration Failed!
